30
1 0 4
2 1 1
3 0 5
4 0 5
4 3 2
5 0 4
5 3 1
6 3 3
7 2 1
7 3 4
7 6 3
8 0 5
8 1 1
8 7 4
9 0 1
9 1 2
9 2 1
9 3 1
9 4 3
9 6 2
9 7 1
9 8 1
10 0 4
10 2 3
10 3 5
10 4 2
10 5 1
10 8 5
11 0 2
11 1 3
11 4 3
11 6 5
11 7 2
11 10 3
12 8 2
12 9 5
13 0 4
13 1 4
13 2 4
13 4 5
13 5 1
13 6 5
13 7 4
13 11 4
13 12 5
14 0 5
14 1 1
14 2 2
14 6 3
14 10 2
14 13 3
15 1 3
15 3 4
15 6 1
15 7 3
15 8 2
15 10 2
15 12 2
15 13 1
16 0 2
16 3 1
16 6 1
16 7 5
16 10 1
16 11 4
16 12 3
16 15 1
17 0 4
17 3 3
17 8 4
17 9 1
17 10 2
17 15 2
18 0 3
18 1 3
18 3 5
18 7 4
18 14 3
18 16 4
19 3 5
19 4 4
19 7 5
19 8 2
19 9 5
19 11 5
19 17 1
19 18 3
20 0 5
20 2 5
20 3 1
20 6 5
20 9 3
20 11 5
20 12 5
20 13 2
20 16 5
20 18 2
21 0 5
21 3 1
21 4 5
21 6 5
21 7 3
21 9 2
21 10 2
21 12 2
21 14 1
21 18 4
22 0 1
22 1 5
22 3 5
22 4 1
22 5 5
22 7 3
22 8 3
22 9 1
22 12 3
22 15 1
22 16 4
22 17 2
22 18 2
22 19 3
22 20 1
23 2 3
23 5 5
23 14 3
23 17 1
23 18 4
23 21 5
24 0 5
24 4 5
24 6 4
24 9 1
24 11 1
24 14 5
24 15 1
24 16 2
24 17 2
24 18 4
24 20 2
25 0 5
25 1 2
25 2 1
25 3 4
25 4 5
25 5 5
25 6 5
25 7 5
25 9 5
25 12 2
25 13 1
25 14 2
25 15 5
25 18 1
25 20 2
25 21 3
25 22 2
25 23 2
25 24 2
26 2 5
26 4 3
26 5 3
26 9 5
26 10 2
26 12 3
26 13 5
26 14 3
26 16 1
26 19 4
26 20 3
26 21 3
26 22 2
26 23 3
26 25 5
27 0 3
27 3 2
27 4 4
27 5 1
27 7 5
27 8 2
27 9 5
27 15 2
27 16 1
27 22 5
27 23 5
27 24 1
28 2 3
28 3 4
28 4 5
28 5 4
28 6 5
28 9 4
28 10 5
28 11 2
28 12 5
28 14 1
28 15 1
28 18 4
28 20 5
28 21 5
28 22 2
28 23 3
28 27 1
29 0 1
29 2 3
29 5 5
29 6 4
29 8 5
29 9 5
29 11 2
29 12 3
29 13 3
29 16 3
29 18 2
29 19 5
29 20 3
29 22 4
29 23 5
29 24 1
29 25 5
